52      4       
10      10      10      10      
0       0       0       0       0       3       2       3       6       
10      3       7       5       5       4       4       9       10      11      
7       9       6       4       6       4       8       9       11      12      
9       10      10      7       3       3       5       12      13      
3       9       8       2       3       3       7       16      22      
10      6       7       4       4       6       14      15      16      17      20      22      
5       6       8       10      8       4       14      15      17      20      
5       8       7       10      10      5       16      19      20      22      26      
1       10      4       9       7       3       14      15      22      
6       7       2       5       10      5       17      18      19      22      26      
5       4       4       7       10      3       14      19      22      
8       9       7       10      10      2       14      17      
9       7       6       10      9       4       17      18      26      32      
7       7       9       6       3       4       18      23      26      32      
4       6       8       9       6       4       19      23      24      26      
8       6       5       8       10      3       18      23      32      
4       5       5       10      4       2       21      23      
7       4       8       9       7       2       21      24      
3       9       9       7       10      4       25      30      31      32      
7       3       10      7       5       1       21      
5       6       8       5       7       4       25      30      31      39      
10      8       10      10      9       4       25      30      31      39      
9       10      5       10      9       4       27      28      29      35      
7       8       10      5       10      5       30      31      33      35      39      
8       8       8       10      6       4       28      29      35      36      
6       9       4       8       9       4       28      29      30      39      
7       7       5       7       8       4       33      36      38      39      
2       9       10      10      10      5       34      37      38      42      44      
9       4       10      10      6       4       33      38      44      45      
7       10      9       5       7       4       34      40      42      45      
8       6       8       8       5       4       37      38      43      44      
6       9       8       6       4       3       34      39      44      
6       9       8       8       10      3       34      40      42      
8       10      8       7       9       5       41      43      46      49      51      
1       6       9       6       10      4       40      45      46      48      
5       5       10      7       7       3       40      44      46      
9       5       6       9       7       4       45      46      48      50      
2       5       6       9       6       3       40      48      51      
7       7       5       10      9       2       40      48      
7       7       9       4       10      3       47      49      50      
3       10      10      10      10      3       47      48      50      
5       10      8       4       9       3       47      49      50      
10      5       10      8       7       2       47      48      
4       9       7       7       9       2       47      48      
2       10      5       10      7       2       47      49      
3       10      7       6       10      1       47      
2       10      7       6       10      1       52      
8       8       9       10      5       1       52      
3       8       10      7       8       1       52      
1       9       6       7       7       1       52      
6       10      10      7       5       1       52      
0       0       0       0       0       0       
